************************************************************************
file with basedata            : mm3_.bas
initial value random generator: 2096507992
************************************************************************
projects                      :  1
jobs (incl. supersource/sink ):  12
horizon                       :  78
RESOURCES
  - renewable                 :  2   R
  - nonrenewable              :  2   N
  - doubly constrained        :  0   D
************************************************************************
PROJECT INFORMATION:
pronr.  #jobs rel.date duedate tardcost  MPM-Time
    1     10      0       16        7       16
************************************************************************
PRECEDENCE RELATIONS:
jobnr.    #modes  #successors   successors
   1        1          3           2   3   4
   2        3          2           7  11
   3        3          1          10
   4        3          3           5   6   8
   5        3          3           7   9  11
   6        3          1           9
   7        3          1          10
   8        3          1          11
   9        3          1          12
  10        3          1          12
  11        3          1          12
  12        1          0        
************************************************************************
REQUESTS/DURATIONS:
jobnr. mode duration  R 1  R 2  N 1  N 2
------------------------------------------------------------------------
  1      1     0       0    0    0    0
  2      1     5      10    0    1    0
         2     5       0    7    0    7
         3     8      10    0    0    7
  3      1     1       5    0    2    0
         2     2       0    6    0   10
         3     3       0    5    2    0
  4      1     6       0    8    0    4
         2     7       4    0    0    4
         3    10       0    1    4    0
  5      1     2       4    0    0    2
         2     2       0    9    4    0
         3    10       0    4    3    0
  6      1     3       0    8    4    0
         2     5       5    0    0    4
         3     6       0    6    0    3
  7      1     2       0    8    0    6
         2     4       0    7    0    6
         3     6       0    6    9    0
  8      1     4       0    7    0    4
         2     7       6    0    0    3
         3     8       0    2    0    3
  9      1     1       0    8    0    4
         2     4       4    0    5    0
         3     7       2    0    3    0
 10      1     6       8    0    0    3
         2    10       3    0    0    2
         3    10       0   10   10    0
 11      1     6       4    0    0    9
         2     9       0    5    0    9
         3    10       0    1    7    0
 12      1     0       0    0    0    0
************************************************************************
RESOURCEAVAILABILITIES:
  R 1  R 2  N 1  N 2
    4   10   32   38
************************************************************************
MAXIMAL LAGS:
from  to  type  delay
    1   12   ES      0
    1    2   ES      0
    2   12   ES      0
    1    3   ES      0
    3   12   ES      0
    1    4   ES      0
    4   12   ES      0
    1    5   ES      0
    5   12   ES      0
    1    6   ES      0
    6   12   ES      0
    1    7   ES      0
    7   12   ES      0
    1    8   ES      0
    8   12   ES      0
    1    9   ES      0
    9   12   ES      0
    1   10   ES      0
   10   12   ES      0
    1   11   ES      0
   11   12   ES      0
    1   12   ES      0
    2    7   SS     10
    2    7   SE     -9
    2    7   ES     10
    2    7   EE     11
    2   11   SS      4
    2   11   SE      7
    2   11   ES     -7
    2   11   EE     -6
    3   10   SS      6
    3   10   SE      8
    3   10   ES      8
    3   10   EE     -8
    4    5   SS     -5
    4    5   SE     -9
    4    5   ES     -8
    4    5   EE      0
    4    6   SS    -11
    4    6   SE     -4
    4    6   ES     -6
    4    6   EE     -8
    4    8   SS      1
    4    8   SE    -12
    4    8   ES      7
    4    8   EE     -6
    5    7   SS    -10
    5    7   SE    -11
    7    5   SE      0
    5    7   ES      0
    5    7   EE      1
    5    9   SS      4
    5    9   SE     -3
    5    9   ES     10
    5    9   EE      8
    5   11   SS     -5
    5   11   SE     -5
    5   11   ES     -2
    5   11   EE      1
    6    9   SS      3
    6    9   SE    -11
    6    9   ES      4
    6    9   EE      1
    7   10   SS      8
    7   10   SE    -11
    7   10   ES     -3
    7   10   EE     -9
    8   11   SS     -4
    8   11   SE     -1
    8   11   ES     -4
    8   11   EE     -1
************************************************************************
